(declare-const delta___cost Int)
(declare-const delta_k Int)
(declare-const delta_j Int)
(assert (exists
         ((|k'?1| Int) (|j'?2| Int) (|__cost'?3| Int) (tr?4 Int) (tr?5 Int)
            (tr?6 Int) (tr?7 Int) (tr?8 Int) (k?9 Int) (j?10 Int)
            (__cost?11 Int))
         (and (< (- __cost?11) 0) (<= (- j?10) 0)
                (or (< (+ (- tr?7) tr?8) 0) (< (+ (- tr?5) tr?6) 0))
                (<= (- __cost?11) 0) (<= (+ (- __cost?11) -1) 0)
                (< (- tr?4) 0) (<= (+ tr?4 (- j?10) -1) 0)
                (= (+ |k'?1| (- tr?4)) 0) (= (+ |j'?2| tr?4 (- j?10)) 0)
                (= (+ |__cost'?3| (- __cost?11) -1) 0)
                (= delta___cost (+ |__cost'?3| (- __cost?11)))
                (= delta_j (+ |j'?2| (- j?10)))
                (= delta_k (+ |k'?1| (- k?9))))))
(check-sat)
